$molecule
0 1
C         -0.65091        1.49649        0.21943
C         -1.33133        0.20676       -0.23147
C         -0.56463       -1.02732        0.23642
H         -1.40448        0.19689       -1.32599
H         -2.35527        0.17437        0.15745
C          0.89742       -0.98027       -0.19937
H         -1.03980       -1.93031       -0.16308
H         -0.61676       -1.09562        1.33005
C          1.57784        0.30946        0.25154
H          0.95460       -1.05955       -1.29200
H          1.43297       -1.84325        0.21202
C          0.81114        1.54354       -0.21636
H          2.60178        0.34185       -0.13738
H          1.65098        0.31933        1.34605
H          0.86327        1.61184       -1.30998
H          1.28631        2.44653        0.18315
H         -0.70809        1.57578        1.31206
H         -1.18646        2.35947       -0.19197
$end

$rem
exchange hf
basis    cc-pvdz
$end